Water Network: 9
Results of actual Hazen--Williams headloss constraint

*******************************************************************************
wdnmodel.mod

-------------------------------- Solving with gurobi --------------------------
Gurobi 12.0.3: Set parameter LogToConsole to value 1
  tech:outlev = 1
  tech:outlev_mp = 1
Set parameter Presolve to value 1
  pre:solve = 1
Set parameter Aggregate to value 1
  pre:aggregate = 1
Set parameter TimeLimit to value 300
  lim:time = 300
Set parameter NumericFocus to value 1
  alg:numericfocus = 1
Set parameter OBBT to value 0
  mip:obbt = 0
Set parameter ScaleFlag to value 1
  pre:scale = 1
Set parameter Method to value 2
  alg:method = 2
Set parameter NodeMethod to value 1
  mip:nodemethod = 1
Set parameter NonConvex to value 2
  qp:nonconvex = 2
Set parameter MIPFocus to value 1
  mip:focus = 1
Set parameter NLPHeur to value 1
  alg:nlpheur = 1
Set parameter VarBranch to value 0
  mip:varbranch = 0
Set parameter MIPGapAbs to value 1e-06
  mip:gapabs = 9.9999999999999995e-07
Set parameter MIPGap to value 1e-09
  mip:gap = 1.0000000000000001e-09
Set parameter FeasibilityTol to value 1e-06
  alg:feastol = 9.9999999999999995e-07
  cvt:pre:feastol = 9.9999999999999995e-07
  cvt:pre:feastolrel = 1.0000000000000001e-09
  sol:chk:feastol = 9.9999999999999995e-07
  sol:chk:feastolrel = 1.0000000000000001e-09
Set parameter Heuristics to value 0.05
  mip:heurfrac = 0.050000000000000003

AMPL MP initial flat model has 500 variables (0 integer, 0 binary);
Objectives: 1 linear; 
Constraints:  94 linear; 116 quadratic;
Algebraic expressions:  58 abs; 58 powconstexp;

AMPL MP final model has 732 variables (0 integer, 0 binary);
Objectives: 1 linear; 
Constraints:  152 linear; 116 quadratic;
Algebraic expressions:  58 abs; 58 powconstexp;


Set parameter InfUnbdInfo to value 1
Gurobi Optimizer version 12.0.3 build v12.0.3rc0 (linux64 - "Debian GNU/Linux 12 (bookworm)")

CPU model: INTEL(R) XEON(R) GOLD 6530, instruction set [SSE2|AVX|AVX2|AVX512]
Thread count: 32 physical cores, 64 logical processors, using up to 32 threads

Non-default parameters:
TimeLimit  300
MIPGap  1e-09
MIPGapAbs  1e-06
Method  2
ScaleFlag  1
MIPFocus  1
NodeMethod  1
OBBT  0
VarBranch  0
InfUnbdInfo  1
NonConvex  2
NumericFocus  1
Presolve  1

Optimize a model with 152 rows, 732 columns and 694 nonzeros
Model fingerprint: 0x2c09558a
Model has 58 simple general constraints
  58 ABS
Model has 58 general nonlinear constraints (1218 nonlinear terms)
Variable types: 732 continuous, 0 integer (0 binary)
Coefficient statistics:
  Matrix range     [1e+00, 1e+00]
  Objective range  [7e+03, 1e+05]
  Bounds range     [2e-03, 2e+03]
  RHS range        [3e-04, 4e+02]
Presolve model has 58 nlconstr
Added 870 variables to disaggregate expressions.
Presolve added 231 rows and 57 columns
Presolve time: 0.02s
Presolved: 2993 rows, 1718 columns, 6956 nonzeros
Presolved model has 464 bilinear constraint(s)
Presolved model has 58 nonlinear constraint(s)

Solving non-convex MINLP

Variable types: 1660 continuous, 58 integer (58 binary)
  NLP heuristic elapsed time = 5.02s
Root barrier log...

Ordering time: 0.01s

Barrier statistics:
 AA' NZ     : 1.752e+04
 Factor NZ  : 3.386e+04 (roughly 2 MB of memory)
 Factor Ops : 5.786e+05 (less than 1 second per iteration)
 Threads    : 1

                  Objective                Residual
Iter       Primal          Dual         Primal    Dual     Compl     Time
   0   5.10432444e+09 -2.35674406e+09  1.84e+03 0.00e+00  4.76e+06     8s
   1   7.77282545e+08 -5.21858673e+08  2.91e+02 2.91e-11  7.54e+05     8s
   2   1.59641867e+08 -3.92123156e+07  2.39e+01 5.92e+00  7.71e+04     8s
   3   6.89888317e+07  3.01275822e+07  1.20e+00 1.24e+00  1.00e+04     8s
   4   5.90577493e+07  4.84800113e+07  6.57e-02 2.91e-11  2.40e+03     8s
   5   5.81708187e+07  5.75035350e+07  9.95e-03 6.37e-11  1.58e+02     8s
   6   5.80659252e+07  5.76623209e+07  5.76e-03 5.09e-11  9.46e+01     8s
   7   5.80172947e+07  5.78477516e+07  3.88e-03 5.09e-11  4.05e+01     8s
   8   5.79462945e+07  5.78793339e+07  1.13e-03 6.18e-11  1.55e+01     8s
   9   5.79207320e+07  5.79121701e+07  1.60e-04 6.59e-11  1.96e+00     8s
  10   5.79171597e+07  5.79163212e+07  2.85e-05 5.71e-11  1.99e-01     8s
  11   5.79163762e+07  5.79163753e+07  9.77e-09 4.28e-11  1.90e-04     8s
  12   5.79163754e+07  5.79163754e+07  5.57e-12 5.23e-11  2.34e-08     8s
  13   5.79163754e+07  5.79163754e+07  1.18e-11 5.46e-11  1.71e-11     8s

Barrier solved model in 13 iterations and 8.33 seconds (0.24 work units)
Optimal objective 5.79163754e+07


Root crossover log...

     481 DPushes remaining with DInf 0.0000000e+00                 8s
       0 DPushes remaining with DInf 0.0000000e+00                 8s

     171 PPushes remaining with PInf 0.0000000e+00                 8s
       0 PPushes remaining with PInf 0.0000000e+00                 8s

  Push phase complete: Pinf 0.0000000e+00, Dinf 0.0000000e+00      8s


Root simplex log...

Iteration    Objective       Primal Inf.    Dual Inf.      Time
     239    5.7916375e+07   0.000000e+00   0.000000e+00      8s
     239    5.7916375e+07   0.000000e+00   0.000000e+00      8s

Root relaxation: objective 5.791638e+07, 239 iterations, 0.19 seconds (0.02 work units)
Total elapsed time = 8.37s (DegenMoves)

    Nodes    |    Current Node    |     Objective Bounds      |     Work
 Expl Unexpl |  Obj  Depth IntInf | Incumbent    BestBd   Gap | It/Node Time

     0     0 5.7916e+07    0  103          - 5.7916e+07      -     -    8s
     0     0 5.7916e+07    0   99          - 5.7916e+07      -     -    8s
     0     0 5.7916e+07    0   97          - 5.7916e+07      -     -    8s
     0     0 5.7916e+07    0   97          - 5.7916e+07      -     -    8s
     0     2 5.7916e+07    0   97          - 5.7916e+07      -     -   18s
    95   188 5.7916e+07    7   93          - 5.7916e+07      -   167   20s
  1751  1676 5.9012e+07   31   91          - 5.7916e+07      -   196   25s
  4259  3466 7.2741e+07   46  107          - 5.7916e+07      -   199   31s
  5752  3974 5.8315e+07   20    0          - 5.7916e+07      -   186   35s
  5754  3975 5.8126e+07   12    0          - 5.7916e+07      -   186   70s
  5755  3979 5.7916e+07   13  123          - 5.7916e+07      -   186   76s
  6303  4389 5.8152e+07   25  115          - 5.7916e+07      -   180   87s
  7290  5009 6.0594e+07   38  108          - 5.7916e+07      -   170   90s
  9132  6022 6.4151e+07   67  101          - 5.7916e+07      -   160   95s
 11397  7205 7.4833e+07  105  104          - 5.7916e+07      -   150  100s
 13711  8293 5.7916e+07   21  123          - 5.7916e+07      -   141  105s
 16528  9854 5.9879e+07   34  116          - 5.7916e+07      -   134  110s
 19417 11501 7.1048e+07   58  110          - 5.7916e+07      -   128  116s
 21078 12902 5.8942e+07   26   98          - 5.7916e+07      -   127  120s
 24044 15417 6.0153e+07   43   95          - 5.7916e+07      -   125  125s
 26363 17237 6.0153e+07   49   99          - 5.7916e+07      -   124  130s
 29029 19372 6.6669e+07   62  123          - 5.7916e+07      -   122  136s
 32460 21892 infeasible   67               - 5.7916e+07      -   120  141s
 35065 23689 8.0203e+07   74  113          - 5.7916e+07      -   119  145s
 39093 27275 8.1384e+07   96  119          - 5.7916e+07      -   118  151s
 41172 27654 8.1378e+07  102  125          - 5.7916e+07      -   116  159s
 41829 29284 8.1533e+07  108  124          - 5.7916e+07      -   115  162s
 44003 30930 8.1567e+07  110  121          - 5.7916e+07      -   113  165s
 48823 34217 8.2130e+07  123  120          - 5.7916e+07      -   109  171s
 53367 37871 infeasible   49               - 5.7916e+07      -   106  176s
 58082 41499 6.5851e+07   47  120          - 5.7916e+07      -   104  182s
 60740 43222 6.9619e+07   58  111          - 5.7916e+07      -   103  185s
 65498 47306 5.9661e+07   81   93          - 5.7916e+07      -   103  192s
 68445 49380 6.1366e+07  139   85          - 5.7916e+07      -   102  197s
 71453 51041 infeasible   59               - 5.7916e+07      -   101  201s
 73842 52795 5.7916e+07   35   97          - 5.7916e+07      -   102  205s
 76502 54917 6.4476e+07   33  108          - 5.7916e+07      -   102  210s
 79472 56048 5.8171e+07   56  103          - 5.7916e+07      -   102  216s
 81101 58693 7.0184e+07   69  107          - 5.7916e+07      -   102  221s
 84748 61696 8.6413e+07   74  114          - 5.7916e+07      -   101  226s
 88621 64287 infeasible  102               - 5.7916e+07      -   100  230s
 95316 69422 1.0529e+08  159  120          - 5.7916e+07      -   100  239s
 99181 71859 1.0765e+08  174  123          - 5.7916e+07      -  98.8  244s
 102534 74371 1.0756e+08  193  123          - 5.7916e+07      -  98.6  249s
 105932 75645 1.0832e+08  207  117          - 5.7916e+07      -  98.3  259s
 107780 78634 1.0817e+08  211  118          - 5.7916e+07      -  98.3  264s
 112055 80885 5.7916e+07   26   93          - 5.7916e+07      -  97.1  270s
 115740 83272 7.7008e+07   47   96          - 5.7916e+07      -  96.8  275s
 119237 85476 5.9095e+07   44  108          - 5.7916e+07      -  96.7  280s
 122513 87816 7.4626e+07   67  119          - 5.7916e+07      -  96.9  285s
 125775 89999 7.8539e+07  111  129          - 5.7916e+07      -  96.9  290s
 128948 92206 8.0876e+07  132  133          - 5.7916e+07      -  97.1  295s
 132229 94508 8.3390e+07  146  132          - 5.7916e+07      -  97.1  300s

Explored 135623 nodes (13162457 simplex iterations) in 300.14 seconds (45.91 work units)
Thread count was 32 (of 64 available processors)

Solution count 0

Time limit reached
Best objective -, best bound 5.791637540000e+07, gap -
Gurobi 12.0.3: time limit, without a feasible solution
1.31625e+07 simplex iterations
25 barrier iterations
135623 branching nodes
eps [*,*]
:         1             2             3             4             5         :=
2     .             .            1.65135e-06    .             .
3     .             .             .            9.83339e-07    .
4     .             .             .             .            1.02596e-06
12    .             .             .            2.56488e-06    .
17    .            8.91888e-07    .             .             .
36   1.21692e-06    .             .             .             .
37   2.1882e-05     .             .             .             .

:         6             7             8             9            10         :=
5    9.45439e-07    .             .             .             .
6     .            1.54278e-06    .             .             .
18    .             .             .             .            2.00027e-06
21   1.21896e-06    .             .             .             .
22    .            9.3847e-07     .             .             .
24    .             .            1.56328e-06    .             .
25    .             .            1.47555e-06    .             .
28    .             .             .            1.34241e-06    .
30    .             .             .            1.6199e-06     .
31    .             .             .             .            1.31946e-06

:        11            12            13            14            15         :=
3    1.26094e-06    .             .             .             .
5     .             .            2.09025e-06    .             .
10   1.47843e-06    .             .             .             .
12    .             .            1.23903e-06    .             .
13    .             .             .            1.70898e-06    .
19    .            1.82361e-06    .             .             .
20    .             .             .             .            1.7386e-06
26    .             .             .             .            1.69735e-06

:        16            17            18            19            20         :=
1     .            1.56182e-06    .             .             .
2     .             .            1.39813e-06    .             .
11    .             .             .            1.39943e-06    .
14    .             .             .             .            3.09823e-06
15   1.314e-06      .             .             .             .
17    .             .            1.14844e-06    .             .
19    .             .             .             .            1.11439e-06
27   1.82728e-06    .             .             .             .

:        21            22            23            24            25         :=
7     .             .             .            1.24755e-06    .
14   2.29313e-06    .             .             .             .
15    .            2.04186e-06    .             .             .
16    .             .             .             .            2.02209e-06
21    .            1.47512e-06    .             .             .
22    .             .            1.78378e-06    .             .
23    .             .             .             .            2.12473e-06
24    .             .            1.21627e-06    .             .

:        26            27            28            29            30         :=
8     .             .            1.49107e-06    .             .
11   2.00881e-06    .             .             .             .
16    .             .             .            1.54149e-06    .
26    .            1.32392e-06    .             .             .
28    .             .             .            1.4672e-06     .
29    .             .             .             .            2.47259e-06
32    .            2.07423e-06    .             .             .

:        31            32            33            34            35         :=
1    2.11971e-06    .             .             .             .
10    .            2.65148e-06    .             .             .
29    .             .            1.20369e-06    .             .
30    .             .             .             .            1.64964e-06
31    .             .             .            2.39971e-06    .
32    .             .            1.4923e-06     .             .
33    .             .             .            3.22136e-06    .
34    .             .             .             .            1.38578e-06

:        36         :=
9    1.71062e-06
35   2.0105e-06
;

*******************************************************************************

Constraints violation:


Sum of constraints violation: 12281.053909999997
*******************************************************************************

*******************************************************************************

Absolute and relative violations between original and approximation constraint 2:

+-----------------+--------------+--------------------------+------------------------+----------------------+----------------------+
| Constraint ID   |   flow value |   Original Con Violation |   Approx Con Violation |   Absolute Violation |   Relative Violation |
+=================+==============+==========================+========================+======================+======================+
| 1,17            |            0 |                        0 |                      0 |                    0 |                    0 |
+-----------------+--------------+--------------------------+------------------------+----------------------+----------------------+
| 1,31            |            0 |                        0 |                      0 |                    0 |                    0 |
+-----------------+--------------+--------------------------+------------------------+----------------------+----------------------+
| 2,3             |            0 |                        0 |                      0 |                    0 |                    0 |
+-----------------+--------------+--------------------------+------------------------+----------------------+----------------------+
| 2,18            |            0 |                        0 |                      0 |                    0 |                    0 |
+-----------------+--------------+--------------------------+------------------------+----------------------+----------------------+
| 3,4             |            0 |                        0 |                      0 |                    0 |                    0 |
+-----------------+--------------+--------------------------+------------------------+----------------------+----------------------+
| 3,11            |            0 |                        0 |                      0 |                    0 |                    0 |
+-----------------+--------------+--------------------------+------------------------+----------------------+----------------------+
| 4,5             |            0 |                        0 |                      0 |                    0 |                    0 |
+-----------------+--------------+--------------------------+------------------------+----------------------+----------------------+
| 5,6             |            0 |                        0 |                      0 |                    0 |                    0 |
+-----------------+--------------+--------------------------+------------------------+----------------------+----------------------+
| 5,13            |            0 |                        0 |                      0 |                    0 |                    0 |
+-----------------+--------------+--------------------------+------------------------+----------------------+----------------------+
| 6,7             |            0 |                        0 |                      0 |                    0 |                    0 |
+-----------------+--------------+--------------------------+------------------------+----------------------+----------------------+
| 7,24            |            0 |                        0 |                      0 |                    0 |                    0 |
+-----------------+--------------+--------------------------+------------------------+----------------------+----------------------+
| 8,28            |            0 |                        0 |                      0 |                    0 |                    0 |
+-----------------+--------------+--------------------------+------------------------+----------------------+----------------------+
| 9,36            |            0 |                        0 |                      0 |                    0 |                    0 |
+-----------------+--------------+--------------------------+------------------------+----------------------+----------------------+
| 10,11           |            0 |                        0 |                      0 |                    0 |                    0 |
+-----------------+--------------+--------------------------+------------------------+----------------------+----------------------+
| 10,32           |            0 |                        0 |                      0 |                    0 |                    0 |
+-----------------+--------------+--------------------------+------------------------+----------------------+----------------------+
| 11,19           |            0 |                        0 |                      0 |                    0 |                    0 |
+-----------------+--------------+--------------------------+------------------------+----------------------+----------------------+
| 11,26           |            0 |                        0 |                      0 |                    0 |                    0 |
+-----------------+--------------+--------------------------+------------------------+----------------------+----------------------+
| 12,4            |            0 |                        0 |                      0 |                    0 |                    0 |
+-----------------+--------------+--------------------------+------------------------+----------------------+----------------------+
| 12,13           |            0 |                        0 |                      0 |                    0 |                    0 |
+-----------------+--------------+--------------------------+------------------------+----------------------+----------------------+
| 13,14           |            0 |                        0 |                      0 |                    0 |                    0 |
+-----------------+--------------+--------------------------+------------------------+----------------------+----------------------+
| 14,20           |            0 |                        0 |                      0 |                    0 |                    0 |
+-----------------+--------------+--------------------------+------------------------+----------------------+----------------------+
| 14,21           |            0 |                        0 |                      0 |                    0 |                    0 |
+-----------------+--------------+--------------------------+------------------------+----------------------+----------------------+
| 15,16           |            0 |                        0 |                      0 |                    0 |                    0 |
+-----------------+--------------+--------------------------+------------------------+----------------------+----------------------+
| 15,22           |            0 |                        0 |                      0 |                    0 |                    0 |
+-----------------+--------------+--------------------------+------------------------+----------------------+----------------------+
| 16,25           |            0 |                        0 |                      0 |                    0 |                    0 |
+-----------------+--------------+--------------------------+------------------------+----------------------+----------------------+
| 16,29           |            0 |                        0 |                      0 |                    0 |                    0 |
+-----------------+--------------+--------------------------+------------------------+----------------------+----------------------+
| 17,2            |            0 |                        0 |                      0 |                    0 |                    0 |
+-----------------+--------------+--------------------------+------------------------+----------------------+----------------------+
| 17,18           |            0 |                        0 |                      0 |                    0 |                    0 |
+-----------------+--------------+--------------------------+------------------------+----------------------+----------------------+
| 18,10           |            0 |                        0 |                      0 |                    0 |                    0 |
+-----------------+--------------+--------------------------+------------------------+----------------------+----------------------+
| 19,12           |            0 |                        0 |                      0 |                    0 |                    0 |
+-----------------+--------------+--------------------------+------------------------+----------------------+----------------------+
| 19,20           |            0 |                        0 |                      0 |                    0 |                    0 |
+-----------------+--------------+--------------------------+------------------------+----------------------+----------------------+
| 20,15           |            0 |                        0 |                      0 |                    0 |                    0 |
+-----------------+--------------+--------------------------+------------------------+----------------------+----------------------+
| 21,6            |            0 |                        0 |                      0 |                    0 |                    0 |
+-----------------+--------------+--------------------------+------------------------+----------------------+----------------------+
| 21,22           |            0 |                        0 |                      0 |                    0 |                    0 |
+-----------------+--------------+--------------------------+------------------------+----------------------+----------------------+
| 22,7            |            0 |                        0 |                      0 |                    0 |                    0 |
+-----------------+--------------+--------------------------+------------------------+----------------------+----------------------+
| 22,23           |            0 |                        0 |                      0 |                    0 |                    0 |
+-----------------+--------------+--------------------------+------------------------+----------------------+----------------------+
| 23,25           |            0 |                        0 |                      0 |                    0 |                    0 |
+-----------------+--------------+--------------------------+------------------------+----------------------+----------------------+
| 24,8            |            0 |                        0 |                      0 |                    0 |                    0 |
+-----------------+--------------+--------------------------+------------------------+----------------------+----------------------+
| 24,23           |            0 |                        0 |                      0 |                    0 |                    0 |
+-----------------+--------------+--------------------------+------------------------+----------------------+----------------------+
| 25,8            |            0 |                        0 |                      0 |                    0 |                    0 |
+-----------------+--------------+--------------------------+------------------------+----------------------+----------------------+
| 26,15           |            0 |                        0 |                      0 |                    0 |                    0 |
+-----------------+--------------+--------------------------+------------------------+----------------------+----------------------+
| 26,27           |            0 |                        0 |                      0 |                    0 |                    0 |
+-----------------+--------------+--------------------------+------------------------+----------------------+----------------------+
| 27,16           |            0 |                        0 |                      0 |                    0 |                    0 |
+-----------------+--------------+--------------------------+------------------------+----------------------+----------------------+
| 28,9            |            0 |                        0 |                      0 |                    0 |                    0 |
+-----------------+--------------+--------------------------+------------------------+----------------------+----------------------+
| 28,29           |            0 |                        0 |                      0 |                    0 |                    0 |
+-----------------+--------------+--------------------------+------------------------+----------------------+----------------------+
| 29,30           |            0 |                        0 |                      0 |                    0 |                    0 |
+-----------------+--------------+--------------------------+------------------------+----------------------+----------------------+
| 29,33           |            0 |                        0 |                      0 |                    0 |                    0 |
+-----------------+--------------+--------------------------+------------------------+----------------------+----------------------+
| 30,9            |            0 |                        0 |                      0 |                    0 |                    0 |
+-----------------+--------------+--------------------------+------------------------+----------------------+----------------------+
| 30,35           |            0 |                        0 |                      0 |                    0 |                    0 |
+-----------------+--------------+--------------------------+------------------------+----------------------+----------------------+
| 31,10           |            0 |                        0 |                      0 |                    0 |                    0 |
+-----------------+--------------+--------------------------+------------------------+----------------------+----------------------+
| 31,34           |            0 |                        0 |                      0 |                    0 |                    0 |
+-----------------+--------------+--------------------------+------------------------+----------------------+----------------------+
| 32,27           |            0 |                        0 |                      0 |                    0 |                    0 |
+-----------------+--------------+--------------------------+------------------------+----------------------+----------------------+
| 32,33           |            0 |                        0 |                      0 |                    0 |                    0 |
+-----------------+--------------+--------------------------+------------------------+----------------------+----------------------+
| 33,34           |            0 |                        0 |                      0 |                    0 |                    0 |
+-----------------+--------------+--------------------------+------------------------+----------------------+----------------------+
| 34,35           |            0 |                        0 |                      0 |                    0 |                    0 |
+-----------------+--------------+--------------------------+------------------------+----------------------+----------------------+
| 35,36           |            0 |                        0 |                      0 |                    0 |                    0 |
+-----------------+--------------+--------------------------+------------------------+----------------------+----------------------+
| 36,1            |            0 |                        0 |                      0 |                    0 |                    0 |
+-----------------+--------------+--------------------------+------------------------+----------------------+----------------------+
| 37,1            |            0 |                      121 |                    121 |                    0 |                    0 |
+-----------------+--------------+--------------------------+------------------------+----------------------+----------------------+

Sum of violation of original headloss constraint: 121.0
Sum of violation of approx headloss constraint: 121.0

Con2 sum of absolute violation between original function and approximate function: 0.0
Con2 sum of relative violation between original function and approximate function: 0.0
*******************************************************************************

Total cost using gurobi: 0.0
gurobi solve time: 300.38 seconds
*******************************************************************************

